c FILE: i160-241

c SOURCE: From steinlib

c DESCRIPTION: Steinlib instance with 160 nodes and 2544 edges.

p edge 160 2544
e 1 3
e 1 13
e 1 18
e 1 38
e 1 42
e 1 44
e 1 45
e 1 50
e 1 56
e 1 57
e 1 71
e 1 73
e 1 79
e 1 83
e 1 89
e 1 95
e 1 96
e 1 97
e 1 100
e 1 101
e 1 105
e 1 110
e 1 111
e 1 117
e 1 118
e 1 122
e 1 130
e 1 133
e 1 136
e 1 150
e 1 155
e 2 9
e 2 10
e 2 12
e 2 16
e 2 20
e 2 22
e 2 23
e 2 25
e 2 28
e 2 41
e 2 43
e 2 46
e 2 48
e 2 52
e 2 66
e 2 67
e 2 75
e 2 80
e 2 86
e 2 92
e 2 107
e 2 111
e 2 115
e 2 116
e 2 120
e 2 136
e 2 143
e 2 150
e 2 153
e 2 160
e 3 11
e 3 19
e 3 32
e 3 51
e 3 58
e 3 61
e 3 63
e 3 64
e 3 66
e 3 73
e 3 83
e 3 92
e 3 93
e 3 99
e 3 100
e 3 102
e 3 109
e 3 110
e 3 115
e 3 117
e 3 127
e 3 131
e 3 136
e 3 138
e 3 139
e 3 150
e 3 152
e 3 159
e 4 12
e 4 20
e 4 25
e 4 28
e 4 30
e 4 31
e 4 32
e 4 36
e 4 38
e 4 39
e 4 54
e 4 66
e 4 70
e 4 71
e 4 72
e 4 76
e 4 80
e 4 83
e 4 96
e 4 98
e 4 106
e 4 107
e 4 110
e 4 119
e 4 122
e 4 124
e 4 128
e 4 130
e 4 133
e 4 134
e 4 140
e 4 143
e 4 153
e 4 154
e 4 160
e 5 11
e 5 12
e 5 20
e 5 22
e 5 27
e 5 30
e 5 31
e 5 34
e 5 35
e 5 47
e 5 51
e 5 64
e 5 73
e 5 74
e 5 80
e 5 91
e 5 104
e 5 107
e 5 110
e 5 115
e 5 117
e 5 122
e 5 128
e 5 138
e 5 140
e 5 141
e 5 142
e 5 143
e 5 144
e 5 145
e 5 146
e 5 147
e 5 153
e 5 159
e 6 13
e 6 23
e 6 24
e 6 27
e 6 33
e 6 40
e 6 43
e 6 53
e 6 55
e 6 56
e 6 61
e 6 62
e 6 64
e 6 65
e 6 68
e 6 75
e 6 83
e 6 86
e 6 93
e 6 96
e 6 100
e 6 111
e 6 118
e 6 119
e 6 124
e 6 125
e 6 130
e 6 136
e 6 141
e 6 157
e 6 160
e 7 10
e 7 13
e 7 15
e 7 21
e 7 34
e 7 37
e 7 45
e 7 57
e 7 59
e 7 62
e 7 64
e 7 70
e 7 71
e 7 73
e 7 75
e 7 78
e 7 83
e 7 95
e 7 104
e 7 107
e 7 118
e 7 125
e 7 126
e 7 130
e 7 136
e 7 153
e 7 155
e 7 157
e 8 13
e 8 16
e 8 22
e 8 26
e 8 27
e 8 29
e 8 42
e 8 50
e 8 51
e 8 58
e 8 62
e 8 64
e 8 77
e 8 84
e 8 85
e 8 88
e 8 89
e 8 92
e 8 95
e 8 99
e 8 100
e 8 102
e 8 123
e 8 138
e 8 151
e 9 10
e 9 12
e 9 14
e 9 18
e 9 21
e 9 26
e 9 30
e 9 32
e 9 34
e 9 48
e 9 55
e 9 59
e 9 66
e 9 68
e 9 72
e 9 78
e 9 92
e 9 100
e 9 103
e 9 105
e 9 107
e 9 110
e 9 118
e 9 120
e 9 124
e 9 140
e 9 148
e 9 155
e 10 12
e 10 13
e 10 14
e 10 18
e 10 31
e 10 33
e 10 42
e 10 47
e 10 56
e 10 59
e 10 60
e 10 73
e 10 80
e 10 82
e 10 83
e 10 84
e 10 88
e 10 89
e 10 91
e 10 94
e 10 99
e 10 110
e 10 111
e 10 118
e 10 125
e 10 132
e 10 141
e 10 142
e 10 144
e 10 151
e 10 153
e 10 155
e 10 156
e 10 157
e 10 159
e 10 160
e 11 12
e 11 19
e 11 29
e 11 33
e 11 44
e 11 47
e 11 48
e 11 53
e 11 72
e 11 73
e 11 82
e 11 85
e 11 97
e 11 99
e 11 113
e 11 119
e 11 126
e 11 131
e 11 135
e 11 138
e 11 143
e 11 145
e 11 147
e 11 148
e 11 156
e 11 158
e 12 17
e 12 23
e 12 24
e 12 27
e 12 33
e 12 48
e 12 60
e 12 62
e 12 66
e 12 75
e 12 78
e 12 79
e 12 81
e 12 85
e 12 87
e 12 117
e 12 121
e 12 122
e 12 126
e 12 127
e 12 132
e 12 140
e 12 148
e 12 151
e 13 14
e 13 22
e 13 29
e 13 36
e 13 42
e 13 49
e 13 52
e 13 57
e 13 63
e 13 76
e 13 90
e 13 91
e 13 100
e 13 104
e 13 112
e 13 116
e 13 117
e 13 122
e 13 123
e 13 124
e 13 140
e 13 143
e 13 144
e 14 16
e 14 31
e 14 36
e 14 37
e 14 45
e 14 47
e 14 51
e 14 57
e 14 71
e 14 76
e 14 79
e 14 85
e 14 94
e 14 97
e 14 98
e 14 103
e 14 106
e 14 109
e 14 115
e 14 121
e 14 126
e 14 131
e 14 133
e 14 134
e 14 138
e 14 146
e 14 150
e 14 152
e 14 155
e 15 28
e 15 33
e 15 39
e 15 40
e 15 42
e 15 53
e 15 57
e 15 61
e 15 64
e 15 67
e 15 75
e 15 76
e 15 79
e 15 81
e 15 83
e 15 87
e 15 91
e 15 100
e 15 102
e 15 105
e 15 124
e 15 134
e 15 136
e 15 140
e 15 150
e 15 157
e 15 159
e 16 17
e 16 19
e 16 20
e 16 21
e 16 28
e 16 44
e 16 53
e 16 54
e 16 55
e 16 61
e 16 62
e 16 66
e 16 69
e 16 71
e 16 78
e 16 81
e 16 106
e 16 109
e 16 112
e 16 115
e 16 117
e 16 118
e 16 124
e 16 127
e 16 129
e 16 133
e 16 135
e 16 138
e 16 139
e 16 141
e 16 147
e 16 148
e 16 154
e 16 155
e 16 158
e 17 18
e 17 23
e 17 26
e 17 29
e 17 37
e 17 49
e 17 51
e 17 55
e 17 62
e 17 68
e 17 69
e 17 71
e 17 73
e 17 82
e 17 90
e 17 91
e 17 94
e 17 101
e 17 107
e 17 116
e 17 120
e 17 121
e 17 129
e 17 132
e 17 134
e 17 135
e 17 139
e 17 148
e 17 150
e 17 153
e 17 155
e 17 156
e 17 158
e 17 159
e 18 20
e 18 27
e 18 28
e 18 34
e 18 41
e 18 51
e 18 52
e 18 56
e 18 74
e 18 75
e 18 83
e 18 85
e 18 87
e 18 93
e 18 100
e 18 108
e 18 109
e 18 113
e 18 114
e 18 123
e 18 125
e 18 126
e 18 145
e 18 159
e 19 25
e 19 34
e 19 37
e 19 38
e 19 40
e 19 45
e 19 48
e 19 51
e 19 53
e 19 56
e 19 59
e 19 67
e 19 68
e 19 72
e 19 76
e 19 81
e 19 83
e 19 92
e 19 95
e 19 97
e 19 102
e 19 105
e 19 113
e 19 121
e 19 130
e 19 136
e 19 140
e 19 141
e 19 144
e 19 155
e 19 156
e 19 158
e 19 160
e 20 26
e 20 27
e 20 28
e 20 30
e 20 38
e 20 43
e 20 44
e 20 49
e 20 55
e 20 58
e 20 65
e 20 67
e 20 72
e 20 75
e 20 82
e 20 83
e 20 88
e 20 94
e 20 112
e 20 130
e 20 139
e 20 145
e 20 148
e 20 152
e 20 155
e 20 160
e 21 25
e 21 30
e 21 32
e 21 37
e 21 39
e 21 45
e 21 72
e 21 73
e 21 74
e 21 78
e 21 81
e 21 83
e 21 97
e 21 98
e 21 99
e 21 103
e 21 104
e 21 109
e 21 112
e 21 118
e 21 121
e 21 126
e 21 129
e 21 130
e 21 132
e 21 139
e 21 143
e 21 144
e 21 149
e 22 26
e 22 29
e 22 30
e 22 42
e 22 45
e 22 47
e 22 55
e 22 73
e 22 77
e 22 84
e 22 94
e 22 106
e 22 108
e 22 116
e 22 123
e 22 126
e 22 129
e 22 135
e 22 147
e 22 150
e 22 151
e 22 158
e 23 25
e 23 26
e 23 39
e 23 48
e 23 49
e 23 55
e 23 58
e 23 61
e 23 75
e 23 77
e 23 80
e 23 89
e 23 95
e 23 97
e 23 100
e 23 105
e 23 108
e 23 110
e 23 116
e 23 134
e 23 140
e 23 148
e 23 149
e 24 26
e 24 27
e 24 44
e 24 50
e 24 55
e 24 60
e 24 67
e 24 74
e 24 75
e 24 78
e 24 79
e 24 84
e 24 90
e 24 97
e 24 104
e 24 117
e 24 133
e 24 134
e 24 135
e 24 136
e 24 138
e 24 144
e 24 147
e 24 157
e 24 158
e 25 27
e 25 29
e 25 31
e 25 34
e 25 37
e 25 43
e 25 44
e 25 52
e 25 56
e 25 61
e 25 63
e 25 67
e 25 72
e 25 79
e 25 80
e 25 82
e 25 88
e 25 89
e 25 91
e 25 94
e 25 100
e 25 103
e 25 105
e 25 110
e 25 118
e 25 119
e 25 120
e 25 127
e 25 129
e 25 134
e 25 146
e 25 149
e 25 155
e 25 160
e 26 27
e 26 29
e 26 32
e 26 36
e 26 38
e 26 41
e 26 43
e 26 53
e 26 61
e 26 64
e 26 76
e 26 88
e 26 92
e 26 95
e 26 97
e 26 110
e 26 117
e 26 135
e 26 136
e 26 143
e 26 149
e 26 155
e 26 157
e 27 35
e 27 41
e 27 42
e 27 46
e 27 49
e 27 56
e 27 58
e 27 60
e 27 63
e 27 64
e 27 71
e 27 80
e 27 105
e 27 110
e 27 122
e 27 145
e 27 148
e 27 151
e 28 38
e 28 43
e 28 46
e 28 56
e 28 60
e 28 72
e 28 73
e 28 74
e 28 83
e 28 85
e 28 89
e 28 99
e 28 101
e 28 105
e 28 106
e 28 108
e 28 109
e 28 114
e 28 133
e 28 135
e 28 142
e 28 144
e 28 152
e 29 30
e 29 31
e 29 40
e 29 42
e 29 46
e 29 64
e 29 65
e 29 74
e 29 80
e 29 85
e 29 89
e 29 91
e 29 100
e 29 105
e 29 111
e 29 118
e 29 120
e 29 124
e 29 126
e 29 133
e 29 134
e 29 138
e 29 153
e 29 157
e 30 31
e 30 41
e 30 44
e 30 45
e 30 56
e 30 60
e 30 63
e 30 69
e 30 73
e 30 74
e 30 76
e 30 77
e 30 80
e 30 81
e 30 89
e 30 92
e 30 104
e 30 105
e 30 106
e 30 110
e 30 112
e 30 113
e 30 116
e 30 120
e 30 122
e 30 123
e 30 128
e 30 133
e 30 137
e 30 139
e 30 141
e 30 144
e 30 151
e 30 152
e 31 32
e 31 46
e 31 51
e 31 52
e 31 56
e 31 64
e 31 70
e 31 74
e 31 78
e 31 79
e 31 90
e 31 94
e 31 96
e 31 99
e 31 100
e 31 105
e 31 106
e 31 107
e 31 109
e 31 113
e 31 121
e 31 132
e 31 135
e 31 142
e 31 143
e 31 147
e 31 148
e 31 149
e 31 153
e 31 154
e 31 157
e 32 33
e 32 39
e 32 42
e 32 59
e 32 60
e 32 61
e 32 62
e 32 68
e 32 72
e 32 77
e 32 78
e 32 79
e 32 91
e 32 100
e 32 109
e 32 113
e 32 115
e 32 116
e 32 117
e 32 119
e 32 123
e 32 131
e 32 137
e 32 145
e 33 34
e 33 39
e 33 45
e 33 51
e 33 58
e 33 67
e 33 71
e 33 72
e 33 73
e 33 82
e 33 98
e 33 105
e 33 110
e 33 116
e 33 118
e 33 124
e 33 131
e 33 136
e 33 137
e 33 140
e 33 149
e 33 160
e 34 41
e 34 52
e 34 67
e 34 68
e 34 70
e 34 72
e 34 74
e 34 75
e 34 77
e 34 79
e 34 80
e 34 87
e 34 92
e 34 94
e 34 95
e 34 98
e 34 102
e 34 105
e 34 111
e 34 113
e 34 117
e 34 124
e 34 134
e 34 135
e 34 139
e 34 145
e 34 150
e 35 44
e 35 51
e 35 52
e 35 56
e 35 60
e 35 62
e 35 67
e 35 75
e 35 77
e 35 79
e 35 96
e 35 99
e 35 101
e 35 103
e 35 114
e 35 121
e 35 128
e 35 129
e 35 130
e 35 131
e 35 135
e 35 140
e 35 147
e 35 148
e 35 151
e 35 157
e 35 158
e 35 159
e 35 160
e 36 49
e 36 51
e 36 59
e 36 63
e 36 70
e 36 72
e 36 76
e 36 86
e 36 88
e 36 89
e 36 96
e 36 98
e 36 111
e 36 112
e 36 122
e 36 125
e 36 128
e 36 129
e 36 130
e 36 131
e 36 144
e 36 145
e 36 157
e 36 158
e 37 39
e 37 46
e 37 48
e 37 56
e 37 57
e 37 60
e 37 65
e 37 68
e 37 69
e 37 71
e 37 74
e 37 75
e 37 79
e 37 85
e 37 94
e 37 100
e 37 111
e 37 114
e 37 115
e 37 121
e 37 127
e 37 132
e 37 133
e 37 141
e 37 145
e 37 155
e 37 160
e 38 41
e 38 46
e 38 64
e 38 71
e 38 80
e 38 84
e 38 93
e 38 94
e 38 98
e 38 118
e 38 122
e 38 132
e 38 141
e 38 145
e 39 45
e 39 46
e 39 47
e 39 53
e 39 55
e 39 61
e 39 81
e 39 83
e 39 84
e 39 86
e 39 94
e 39 96
e 39 101
e 39 107
e 39 109
e 39 118
e 39 124
e 39 132
e 39 133
e 39 141
e 39 142
e 39 143
e 39 147
e 39 150
e 39 154
e 39 155
e 40 45
e 40 49
e 40 60
e 40 65
e 40 74
e 40 77
e 40 85
e 40 90
e 40 98
e 40 99
e 40 102
e 40 111
e 40 119
e 40 130
e 40 135
e 40 138
e 40 141
e 40 147
e 40 156
e 40 158
e 40 159
e 40 160
e 41 57
e 41 68
e 41 73
e 41 75
e 41 78
e 41 79
e 41 86
e 41 90
e 41 104
e 41 125
e 41 129
e 41 130
e 41 137
e 41 145
e 41 149
e 41 150
e 41 156
e 41 159
e 42 43
e 42 44
e 42 47
e 42 58
e 42 61
e 42 64
e 42 66
e 42 67
e 42 72
e 42 74
e 42 75
e 42 78
e 42 87
e 42 89
e 42 94
e 42 104
e 42 107
e 42 108
e 42 109
e 42 110
e 42 119
e 42 122
e 42 133
e 42 141
e 42 143
e 42 159
e 42 160
e 43 51
e 43 58
e 43 59
e 43 61
e 43 64
e 43 83
e 43 87
e 43 94
e 43 99
e 43 100
e 43 108
e 43 111
e 43 113
e 43 118
e 43 119
e 43 142
e 43 145
e 43 149
e 43 157
e 43 159
e 44 45
e 44 46
e 44 51
e 44 58
e 44 59
e 44 62
e 44 63
e 44 64
e 44 94
e 44 97
e 44 101
e 44 104
e 44 106
e 44 113
e 44 119
e 44 120
e 44 123
e 44 125
e 44 135
e 44 139
e 44 151
e 45 51
e 45 52
e 45 55
e 45 57
e 45 64
e 45 67
e 45 68
e 45 69
e 45 82
e 45 84
e 45 85
e 45 89
e 45 90
e 45 92
e 45 98
e 45 102
e 45 103
e 45 109
e 45 121
e 45 122
e 45 130
e 45 136
e 45 138
e 45 141
e 45 143
e 45 144
e 45 146
e 45 152
e 46 47
e 46 50
e 46 51
e 46 58
e 46 61
e 46 70
e 46 76
e 46 81
e 46 89
e 46 100
e 46 102
e 46 104
e 46 116
e 46 119
e 46 129
e 46 141
e 46 142
e 46 147
e 46 151
e 46 153
e 46 159
e 47 55
e 47 62
e 47 67
e 47 73
e 47 94
e 47 95
e 47 103
e 47 112
e 47 114
e 47 119
e 47 120
e 47 123
e 47 126
e 47 128
e 47 132
e 47 133
e 47 135
e 47 138
e 47 146
e 47 148
e 47 151
e 47 152
e 47 160
e 48 56
e 48 57
e 48 60
e 48 67
e 48 69
e 48 70
e 48 74
e 48 77
e 48 81
e 48 82
e 48 86
e 48 87
e 48 94
e 48 95
e 48 97
e 48 99
e 48 103
e 48 104
e 48 108
e 48 114
e 48 115
e 48 116
e 48 117
e 48 136
e 48 144
e 48 148
e 48 153
e 48 155
e 49 51
e 49 66
e 49 68
e 49 81
e 49 87
e 49 88
e 49 90
e 49 91
e 49 96
e 49 100
e 49 103
e 49 104
e 49 105
e 49 107
e 49 114
e 49 122
e 49 126
e 49 130
e 49 134
e 49 138
e 49 147
e 49 149
e 49 150
e 49 153
e 49 154
e 49 160
e 50 54
e 50 56
e 50 59
e 50 64
e 50 69
e 50 71
e 50 74
e 50 81
e 50 89
e 50 92
e 50 93
e 50 100
e 50 108
e 50 110
e 50 117
e 50 120
e 50 124
e 50 130
e 50 131
e 50 139
e 50 141
e 50 150
e 50 153
e 51 56
e 51 57
e 51 58
e 51 62
e 51 72
e 51 76
e 51 77
e 51 78
e 51 79
e 51 81
e 51 82
e 51 90
e 51 91
e 51 101
e 51 113
e 51 118
e 51 123
e 51 126
e 51 132
e 51 133
e 51 140
e 51 143
e 51 144
e 51 150
e 51 151
e 51 152
e 51 156
e 51 157
e 52 53
e 52 55
e 52 59
e 52 60
e 52 62
e 52 77
e 52 80
e 52 82
e 52 105
e 52 106
e 52 110
e 52 112
e 52 120
e 52 121
e 52 132
e 52 133
e 52 135
e 52 136
e 52 152
e 52 153
e 52 158
e 53 55
e 53 60
e 53 62
e 53 63
e 53 71
e 53 72
e 53 73
e 53 78
e 53 79
e 53 82
e 53 93
e 53 115
e 53 130
e 53 139
e 53 142
e 53 146
e 53 153
e 54 61
e 54 67
e 54 70
e 54 77
e 54 79
e 54 84
e 54 89
e 54 90
e 54 92
e 54 94
e 54 102
e 54 111
e 54 116
e 54 119
e 54 123
e 54 132
e 54 133
e 54 137
e 54 142
e 54 147
e 54 149
e 54 150
e 54 156
e 54 158
e 54 159
e 55 56
e 55 62
e 55 73
e 55 77
e 55 78
e 55 84
e 55 96
e 55 97
e 55 101
e 55 102
e 55 116
e 55 124
e 55 131
e 55 132
e 55 137
e 55 156
e 55 160
e 56 63
e 56 70
e 56 78
e 56 86
e 56 92
e 56 98
e 56 99
e 56 100
e 56 103
e 56 108
e 56 120
e 56 125
e 56 127
e 56 136
e 56 137
e 56 139
e 56 149
e 56 150
e 56 153
e 56 157
e 57 58
e 57 60
e 57 64
e 57 69
e 57 73
e 57 79
e 57 88
e 57 92
e 57 93
e 57 100
e 57 112
e 57 115
e 57 116
e 57 120
e 57 125
e 57 129
e 57 130
e 57 131
e 57 138
e 57 142
e 57 152
e 57 153
e 57 154
e 58 62
e 58 67
e 58 71
e 58 77
e 58 86
e 58 87
e 58 92
e 58 95
e 58 111
e 58 115
e 58 131
e 58 134
e 58 136
e 58 137
e 58 141
e 58 150
e 58 159
e 59 60
e 59 68
e 59 71
e 59 73
e 59 75
e 59 77
e 59 83
e 59 86
e 59 87
e 59 89
e 59 94
e 59 108
e 59 109
e 59 110
e 59 113
e 59 116
e 59 121
e 59 122
e 59 123
e 59 124
e 59 132
e 59 133
e 59 137
e 59 144
e 59 151
e 59 152
e 59 153
e 59 154
e 59 155
e 59 159
e 60 63
e 60 68
e 60 71
e 60 81
e 60 85
e 60 87
e 60 89
e 60 93
e 60 94
e 60 95
e 60 102
e 60 111
e 60 113
e 60 118
e 60 120
e 60 122
e 60 128
e 60 129
e 60 136
e 60 138
e 60 143
e 60 144
e 60 146
e 60 148
e 60 154
e 60 155
e 60 157
e 60 159
e 61 63
e 61 83
e 61 93
e 61 94
e 61 95
e 61 101
e 61 102
e 61 105
e 61 122
e 61 137
e 61 142
e 61 143
e 62 64
e 62 66
e 62 67
e 62 69
e 62 72
e 62 73
e 62 77
e 62 89
e 62 92
e 62 93
e 62 95
e 62 97
e 62 113
e 62 115
e 62 120
e 62 121
e 62 130
e 62 139
e 62 140
e 62 146
e 62 149
e 62 155
e 62 156
e 63 64
e 63 68
e 63 79
e 63 84
e 63 85
e 63 90
e 63 98
e 63 100
e 63 101
e 63 104
e 63 108
e 63 109
e 63 114
e 63 136
e 63 140
e 63 142
e 63 145
e 63 150
e 63 151
e 63 154
e 64 69
e 64 73
e 64 87
e 64 101
e 64 102
e 64 105
e 64 114
e 64 126
e 64 128
e 64 130
e 64 133
e 64 136
e 64 137
e 64 139
e 64 144
e 64 145
e 64 153
e 64 160
e 65 69
e 65 70
e 65 82
e 65 86
e 65 93
e 65 97
e 65 108
e 65 109
e 65 111
e 65 120
e 65 131
e 65 132
e 65 134
e 65 147
e 65 149
e 65 151
e 65 153
e 65 154
e 65 157
e 66 69
e 66 73
e 66 74
e 66 79
e 66 81
e 66 85
e 66 90
e 66 96
e 66 98
e 66 103
e 66 113
e 66 119
e 66 120
e 66 125
e 66 131
e 66 139
e 66 141
e 67 71
e 67 73
e 67 78
e 67 79
e 67 87
e 67 93
e 67 99
e 67 101
e 67 109
e 67 111
e 67 113
e 67 115
e 67 119
e 67 124
e 67 126
e 67 129
e 67 130
e 67 135
e 67 138
e 67 140
e 67 142
e 67 144
e 67 150
e 67 151
e 67 153
e 67 159
e 68 72
e 68 83
e 68 89
e 68 93
e 68 96
e 68 98
e 68 99
e 68 103
e 68 104
e 68 115
e 68 117
e 68 122
e 68 129
e 68 136
e 68 150
e 68 152
e 68 153
e 68 157
e 69 85
e 69 88
e 69 89
e 69 91
e 69 95
e 69 96
e 69 102
e 69 111
e 69 113
e 69 119
e 69 120
e 69 132
e 69 134
e 69 135
e 69 143
e 69 148
e 69 149
e 69 151
e 69 156
e 69 157
e 69 158
e 70 71
e 70 86
e 70 95
e 70 100
e 70 106
e 70 107
e 70 110
e 70 113
e 70 119
e 70 130
e 70 131
e 70 136
e 70 137
e 70 138
e 70 141
e 71 74
e 71 84
e 71 94
e 71 99
e 71 103
e 71 117
e 71 124
e 71 131
e 71 134
e 71 140
e 71 144
e 71 145
e 72 74
e 72 88
e 72 91
e 72 94
e 72 97
e 72 99
e 72 103
e 72 105
e 72 113
e 72 119
e 72 122
e 72 132
e 72 137
e 72 148
e 72 150
e 72 159
e 72 160
e 73 78
e 73 91
e 73 99
e 73 110
e 73 113
e 73 116
e 73 117
e 73 121
e 73 123
e 73 129
e 73 132
e 73 140
e 73 143
e 73 149
e 73 153
e 73 154
e 73 155
e 74 78
e 74 79
e 74 87
e 74 88
e 74 105
e 74 109
e 74 117
e 74 119
e 74 124
e 74 129
e 74 136
e 74 137
e 74 140
e 74 142
e 74 147
e 74 153
e 74 156
e 74 158
e 74 160
e 75 80
e 75 86
e 75 92
e 75 93
e 75 94
e 75 98
e 75 99
e 75 100
e 75 104
e 75 107
e 75 118
e 75 124
e 75 126
e 75 127
e 75 140
e 75 141
e 75 143
e 75 149
e 75 155
e 75 157
e 76 77
e 76 79
e 76 81
e 76 86
e 76 89
e 76 92
e 76 109
e 76 114
e 76 118
e 76 119
e 76 128
e 76 144
e 76 148
e 76 157
e 77 82
e 77 95
e 77 100
e 77 107
e 77 112
e 77 119
e 77 125
e 77 129
e 77 142
e 77 143
e 77 144
e 77 146
e 78 99
e 78 110
e 78 115
e 78 116
e 78 121
e 78 125
e 78 129
e 78 130
e 78 133
e 78 140
e 78 159
e 79 84
e 79 95
e 79 105
e 79 107
e 79 111
e 79 121
e 79 122
e 79 124
e 79 126
e 79 127
e 79 130
e 79 134
e 79 135
e 79 138
e 79 139
e 79 144
e 79 147
e 79 152
e 80 85
e 80 88
e 80 90
e 80 91
e 80 97
e 80 101
e 80 113
e 80 114
e 80 115
e 80 121
e 80 122
e 80 123
e 80 131
e 80 132
e 80 151
e 80 152
e 80 155
e 80 156
e 81 82
e 81 83
e 81 89
e 81 93
e 81 94
e 81 98
e 81 99
e 81 100
e 81 108
e 81 115
e 81 119
e 81 122
e 81 125
e 81 129
e 81 139
e 81 149
e 81 155
e 81 157
e 82 84
e 82 87
e 82 95
e 82 96
e 82 98
e 82 100
e 82 105
e 82 106
e 82 109
e 82 111
e 82 112
e 82 128
e 82 133
e 82 137
e 82 149
e 82 157
e 83 84
e 83 90
e 83 94
e 83 98
e 83 108
e 83 118
e 83 119
e 83 122
e 83 123
e 83 125
e 83 132
e 83 135
e 83 141
e 83 147
e 83 150
e 83 151
e 83 153
e 83 156
e 83 157
e 83 158
e 83 159
e 84 90
e 84 104
e 84 105
e 84 111
e 84 116
e 84 119
e 84 127
e 84 131
e 84 143
e 84 149
e 84 156
e 85 86
e 85 91
e 85 99
e 85 102
e 85 105
e 85 107
e 85 112
e 85 113
e 85 118
e 85 119
e 85 122
e 85 123
e 85 127
e 85 128
e 85 131
e 85 136
e 85 140
e 85 142
e 85 154
e 85 157
e 85 159
e 86 92
e 86 95
e 86 103
e 86 104
e 86 108
e 86 109
e 86 122
e 86 123
e 86 124
e 86 125
e 86 131
e 86 132
e 86 134
e 86 140
e 86 142
e 86 146
e 86 158
e 87 91
e 87 93
e 87 98
e 87 102
e 87 104
e 87 105
e 87 113
e 87 114
e 87 117
e 87 122
e 87 126
e 87 128
e 87 145
e 87 156
e 88 89
e 88 92
e 88 100
e 88 122
e 88 125
e 88 129
e 88 130
e 88 132
e 88 142
e 88 143
e 88 145
e 88 154
e 88 156
e 88 158
e 88 159
e 89 101
e 89 102
e 89 103
e 89 105
e 89 114
e 89 115
e 89 116
e 89 122
e 89 124
e 89 129
e 89 130
e 89 133
e 89 143
e 89 144
e 89 147
e 89 150
e 89 154
e 89 157
e 89 159
e 90 101
e 90 111
e 90 114
e 90 115
e 90 119
e 90 122
e 90 124
e 90 126
e 90 131
e 90 139
e 91 93
e 91 95
e 91 98
e 91 104
e 91 108
e 91 111
e 91 114
e 91 117
e 91 126
e 91 129
e 91 138
e 91 143
e 91 146
e 91 159
e 92 94
e 92 98
e 92 107
e 92 109
e 92 119
e 92 130
e 92 133
e 92 139
e 92 150
e 93 97
e 93 98
e 93 100
e 93 101
e 93 102
e 93 122
e 93 123
e 93 125
e 93 131
e 93 132
e 93 135
e 93 136
e 93 140
e 93 149
e 93 154
e 94 95
e 94 96
e 94 100
e 94 107
e 94 108
e 94 110
e 94 114
e 94 120
e 94 123
e 94 124
e 94 125
e 94 128
e 94 129
e 94 131
e 94 134
e 94 140
e 94 144
e 94 159
e 94 160
e 95 109
e 95 115
e 95 116
e 95 117
e 95 120
e 95 126
e 95 127
e 95 135
e 95 142
e 95 145
e 95 147
e 95 150
e 95 155
e 95 158
e 96 105
e 96 108
e 96 112
e 96 113
e 96 114
e 96 118
e 96 119
e 96 125
e 96 126
e 96 134
e 96 138
e 96 140
e 96 146
e 96 152
e 96 154
e 96 157
e 97 99
e 97 115
e 97 116
e 97 117
e 97 119
e 97 121
e 97 131
e 97 137
e 97 150
e 98 116
e 98 117
e 98 124
e 98 126
e 98 134
e 98 142
e 98 152
e 98 153
e 98 154
e 98 155
e 98 157
e 98 159
e 99 104
e 99 105
e 99 106
e 99 108
e 99 109
e 99 122
e 99 124
e 99 128
e 99 131
e 99 136
e 99 143
e 99 146
e 99 152
e 99 157
e 100 104
e 100 123
e 100 126
e 100 128
e 100 129
e 100 134
e 100 143
e 100 144
e 100 146
e 100 151
e 100 157
e 101 103
e 101 104
e 101 108
e 101 110
e 101 111
e 101 114
e 101 117
e 101 123
e 101 128
e 101 140
e 101 144
e 101 149
e 101 150
e 101 152
e 101 156
e 101 160
e 102 103
e 102 113
e 102 118
e 102 126
e 102 127
e 102 128
e 102 129
e 102 130
e 102 139
e 102 140
e 102 143
e 102 145
e 102 151
e 102 153
e 102 157
e 102 160
e 103 109
e 103 119
e 103 120
e 103 123
e 103 124
e 103 127
e 103 139
e 103 144
e 103 150
e 103 151
e 103 154
e 104 108
e 104 118
e 104 120
e 104 135
e 104 139
e 104 140
e 104 142
e 104 143
e 104 144
e 104 147
e 104 151
e 104 155
e 105 107
e 105 112
e 105 114
e 105 116
e 105 118
e 105 119
e 105 135
e 105 140
e 105 144
e 105 147
e 105 149
e 105 156
e 105 159
e 106 116
e 106 120
e 106 127
e 106 139
e 106 140
e 106 142
e 106 143
e 106 145
e 106 150
e 106 155
e 106 158
e 107 120
e 107 130
e 107 155
e 107 156
e 107 158
e 108 115
e 108 121
e 108 130
e 108 139
e 108 152
e 108 158
e 109 129
e 109 130
e 109 132
e 109 135
e 109 136
e 109 139
e 109 144
e 109 149
e 109 157
e 109 159
e 110 118
e 110 126
e 110 140
e 110 144
e 110 148
e 110 158
e 111 114
e 111 116
e 111 120
e 111 122
e 111 123
e 111 126
e 111 127
e 111 132
e 111 138
e 111 143
e 111 148
e 111 153
e 111 156
e 111 160
e 112 118
e 112 122
e 112 125
e 112 126
e 112 128
e 112 143
e 112 153
e 112 155
e 113 115
e 113 119
e 113 122
e 113 128
e 113 131
e 113 135
e 113 141
e 113 152
e 113 160
e 114 116
e 114 117
e 114 119
e 114 121
e 114 123
e 114 124
e 114 126
e 114 131
e 114 135
e 114 136
e 114 137
e 114 145
e 114 150
e 114 160
e 115 119
e 115 124
e 115 133
e 115 143
e 115 144
e 115 155
e 115 157
e 116 121
e 116 123
e 116 125
e 116 131
e 116 149
e 116 153
e 117 119
e 117 120
e 117 121
e 117 122
e 117 123
e 117 126
e 117 129
e 117 134
e 117 135
e 117 136
e 117 137
e 117 139
e 117 140
e 117 145
e 117 158
e 118 133
e 118 150
e 118 151
e 118 159
e 119 123
e 119 130
e 119 132
e 119 133
e 119 135
e 119 160
e 120 121
e 120 122
e 120 125
e 120 127
e 120 149
e 120 150
e 120 152
e 120 155
e 120 157
e 121 127
e 121 130
e 121 133
e 121 135
e 121 138
e 121 141
e 121 156
e 121 157
e 121 159
e 122 128
e 122 137
e 122 138
e 122 153
e 122 156
e 123 126
e 123 132
e 123 149
e 123 153
e 123 154
e 123 159
e 124 125
e 124 129
e 124 132
e 124 137
e 124 140
e 124 148
e 124 151
e 124 158
e 125 140
e 125 141
e 125 142
e 125 146
e 125 147
e 125 151
e 125 153
e 126 129
e 126 142
e 126 144
e 126 146
e 126 150
e 126 151
e 126 152
e 127 128
e 127 131
e 127 135
e 127 139
e 127 140
e 127 150
e 127 152
e 128 130
e 128 141
e 128 148
e 129 135
e 129 136
e 129 137
e 129 139
e 129 145
e 129 146
e 129 156
e 130 131
e 130 132
e 130 136
e 130 142
e 130 152
e 131 136
e 131 137
e 131 144
e 131 145
e 131 146
e 131 148
e 131 152
e 131 155
e 132 138
e 132 139
e 132 145
e 132 148
e 132 149
e 132 154
e 132 155
e 132 159
e 133 149
e 133 150
e 133 152
e 134 135
e 134 139
e 134 141
e 134 142
e 134 155
e 134 159
e 135 141
e 135 145
e 135 147
e 135 148
e 135 149
e 135 153
e 136 138
e 136 142
e 136 147
e 137 147
e 137 151
e 137 152
e 137 156
e 137 157
e 137 160
e 138 145
e 138 147
e 138 152
e 138 156
e 138 157
e 138 160
e 139 146
e 139 150
e 139 152
e 140 143
e 140 147
e 140 150
e 140 151
e 140 153
e 140 160
e 141 148
e 141 152
e 142 155
e 143 145
e 143 149
e 143 152
e 143 154
e 143 155
e 143 158
e 144 145
e 144 147
e 144 149
e 144 150
e 144 155
e 145 146
e 145 148
e 145 151
e 145 157
e 146 147
e 147 154
e 147 155
e 148 155
e 149 156
e 149 159
e 151 152
e 151 153
e 151 159
e 152 155
e 152 157
e 152 160
e 154 158
e 154 160
e 155 157
e 156 160
e 157 160
e 158 159
